HUN,8,6,782
0,15,2,25,1,14,3,2,5,25,4,26
1,21,2,28,0,1,5,1,4,19,3,25
0,17,1,28,2,2,3,17,4,22,5,17
1,7,0,28,2,26,4,24,5,24,3,26
0,25,2,29,1,10,3,20,4,20,5,12
2,15,0,24,1,5,5,23,3,28,4,16
2,25,1,3,0,19,5,24,4,16,3,23
1,8,2,19,0,2,5,6,4,24,3,12
